
******************************************************************************
This program contains Ipopt, a library for large-scale nonlinear optimization.
 Ipopt is released as open source code under the Eclipse Public License (EPL).
         For more information visit http://projects.coin-or.org/Ipopt

This version of Ipopt was compiled from source code available at
    https://github.com/IDAES/Ipopt as part of the Institute for the Design of
    Advanced Energy Systems Process Systems Engineering Framework (IDAES PSE
    Framework) Copyright (c) 2018-2019. See https://github.com/IDAES/idaes-pse.

This version of Ipopt was compiled using HSL, a collection of Fortran codes
    for large-scale scientific computation.  All technical papers, sales and
    publicity material resulting from use of the HSL codes within IPOPT must
    contain the following acknowledgement:
        HSL, a collection of Fortran codes for large-scale scientific
        computation. See http://www.hsl.rl.ac.uk.
******************************************************************************

This is Ipopt version 3.13.2, running with linear solver ma27.

Number of nonzeros in equality constraint Jacobian...:      808
Number of nonzeros in inequality constraint Jacobian.:        0
Number of nonzeros in Lagrangian Hessian.............:      702

Total number of variables............................:      351
                     variables with only lower bounds:      108
                variables with lower and upper bounds:      189
                     variables with only upper bounds:        0
Total number of equality constraints.................:      350
Total number of inequality constraints...............:        0
        inequality constraints with only lower bounds:        0
   inequality constraints with lower and upper bounds:        0
        inequality constraints with only upper bounds:        0

iter    objective    inf_pr   inf_du lg(mu)  ||d||  lg(rg) alpha_du alpha_pr  ls
   0  0.0000000e+00 3.66e-01 7.11e-15  -1.0 0.00e+00    -  0.00e+00 0.00e+00   0
   1  1.6422719e-02 3.41e-01 2.19e+03  -1.0 1.26e+05    -  8.33e-01 6.85e-02h  1
   2  2.6052245e-02 3.35e-01 2.44e+03  -1.0 2.41e+05    -  7.45e-01 1.65e-02h  1
   3  1.4037627e+01 4.80e-02 2.52e+04  -1.0 2.46e+05    -  7.44e-01 9.90e-01h  1
   4  1.8726219e+01 1.65e-03 3.16e+02  -1.0 3.98e+04    -  9.51e-01 9.90e-01h  1
   5  1.8874602e+01 1.79e-05 8.45e+00  -1.0 1.23e+03    -  9.90e-01 9.90e-01h  1
   6  1.8875813e+01 1.76e-05 1.06e+07  -1.0 5.49e+02    -  9.90e-01 1.55e-02f  7
   7  1.8877915e+01 1.74e-05 2.13e+07  -1.0 9.51e+02    -  9.90e-01 1.55e-02f  7
   8  1.9011580e+01 7.94e-05 3.25e+05  -1.0 9.43e+02    -  1.00e+00 9.90e-01h  1
   9  1.9012055e+01 8.25e-07 1.13e+07  -1.0 3.34e+00    -  1.00e+00 9.90e-01h  1
iter    objective    inf_pr   inf_du lg(mu)  ||d||  lg(rg) alpha_du alpha_pr  ls
  10  1.9012057e+01 8.25e-09 1.13e+09  -1.0 1.47e-02    -  1.00e+00 9.90e-01h  1
  11  1.9012057e+01 8.14e-10 1.13e+11  -1.0 1.46e-04    -  1.00e+00 9.90e-01h  1
In iteration 11, 27 Slacks too small, adjusting variable bounds
  12  1.9012057e+01 5.66e-10 1.13e+13  -1.0 1.10e-04    -  1.00e+00 9.90e-01h  1
  13  1.9012057e+01 1.94e-10 2.38e-01  -1.0 7.63e-05    -  1.00e+00 1.00e+00h  1
  14  1.9011990e+01 3.78e-10 1.15e+13  -9.0 1.32e+03    -  9.99e-01 3.56e-04f 12
  15  1.9011956e+01 1.60e-10 1.15e+13  -9.0 9.64e+02    -  9.99e-01 2.43e-04f 13
  16  1.9011889e+01 2.39e-10 1.15e+13  -9.0 9.58e+02    -  1.00e+00 4.88e-04f 12
  17  1.9011755e+01 1.92e-10 1.15e+13  -9.0 9.58e+02    -  1.00e+00 9.77e-04f 11
  18  1.9011755e+01 2.39e-10 1.15e+13  -9.0 9.57e+02    -  1.00e+00 1.16e-10h 34
  19  1.8874679e+01 8.91e-05 1.51e+01  -9.0 9.57e+02    -  1.00e+00 1.00e+00f  1
iter    objective    inf_pr   inf_du lg(mu)  ||d||  lg(rg) alpha_du alpha_pr  ls
  20  1.8874034e+01 7.97e-10 8.15e-05  -9.0 4.52e+00    -  1.00e+00 1.00e+00h  1
  21  1.8874034e+01 9.21e-11 1.72e-11  -9.0 4.66e-05    -  1.00e+00 1.00e+00h  1

Number of Iterations....: 21

                                   (scaled)                 (unscaled)
Objective...............:   1.8874034259085310e+01    1.8874034259085310e+01
Dual infeasibility......:   1.7183355628525101e-11    1.7183355628525101e-11
Constraint violation....:   9.2089669223582860e-11    9.2089669223582860e-11
Complementarity.........:   9.0909101484421241e-10    9.0909101484421241e-10
Overall NLP error.......:   9.2089669223582860e-11    9.0909101484421241e-10


Number of objective function evaluations             = 129
Number of objective gradient evaluations             = 22
Number of equality constraint evaluations            = 129
Number of inequality constraint evaluations          = 0
Number of equality constraint Jacobian evaluations   = 22
Number of inequality constraint Jacobian evaluations = 0
Number of Lagrangian Hessian evaluations             = 21
Total CPU secs in IPOPT (w/o function evaluations)   =      0.049
Total CPU secs in NLP function evaluations           =      0.946

EXIT: Optimal Solution Found.
